p cnf 2973
-17 -256
-18 -90
-19 -93
-20 -96
-21 -99
-22 -102
-23 -105
-24 -108
-25 -111
-26 -298
-27 -304
-28 -310
-29 -316
-30 -322
-31 -328
-32 -334
-33 -340
-34 -366
-35 -385
-36 -403
-37 -413
-38 -432
-39 -451
-40 -469
-41 -479
-42 -498
-43 -517
-44 -535
-45 -545
-46 -564
-47 -583
-48 -601
-49 -611
-50 -630
-51 -649
-52 -667
-53 -677
-54 -696
-55 -715
-56 -733
-57 -743
-58 -762
-59 -781
-60 -799
-61 -809
-62 -828
-63 -847
-64 -865
-65 -875
-66 -927
-67 1
-67 -26
-1 26 67
-68 2
-68 -27
-2 27 68
-69 3
-69 -28
-3 28 69
-70 4
-70 -29
-4 29 70
-71 5
-71 -30
-5 30 71
-72 6
-72 -31
-6 31 72
-73 7
-73 -32
-7 32 73
-74 8
-74 -33
-8 33 74
-75 -67
-75 68
67 -68 75
-76 -67
-76 -75
67 75 76
-77 69
-77 76
-69 -76 77
-78 76
-78 -77
-76 77 78
-79 70
-79 78
-70 -78 79
-80 78
-80 -79
-78 79 80
-81 71
-81 80
-71 -80 81
-82 80
-82 -81
-80 81 82
-83 72
-83 82
-72 -82 83
-84 82
-84 -83
-82 83 84
-85 73
-85 84
-73 -84 85
-86 84
-86 -85
-84 85 86
-87 74
-87 86
-74 -86 87
-88 -17
-88 67
17 -67 88
-89 17
-89 18
-17 -18 89
-90 -88
-90 -89
88 89 90
-91 -17
-91 75
17 -75 91
-92 17
-92 19
-17 -19 92
-93 -91
-93 -92
91 92 93
-94 -17
-94 77
17 -77 94
-95 17
-95 20
-17 -20 95
-96 -94
-96 -95
94 95 96
-97 -17
-97 79
17 -79 97
-98 17
-98 21
-17 -21 98
-99 -97
-99 -98
97 98 99
-100 -17
-100 81
17 -81 100
-101 17
-101 22
-17 -22 101
-102 -100
-102 -101
100 101 102
-103 -17
-103 83
17 -83 103
-104 17
-104 23
-17 -23 104
-105 -103
-105 -104
103 104 105
-106 -17
-106 85
17 -85 106
-107 17
-107 24
-17 -24 107
-108 -106
-108 -107
106 107 108
-109 -17
-109 87
17 -87 109
-110 17
-110 25
-17 -25 110
-111 -109
-111 -110
109 110 111
-112 1
-112 -90
-1 90 112
-113 2
-113 -93
-2 93 113
-114 3
-114 -96
-3 96 114
-115 4
-115 -99
-4 99 115
-116 5
-116 -102
-5 102 116
-117 6
-117 -105
-6 105 117
-118 7
-118 -108
-7 108 118
-119 8
-119 -111
-8 111 119
-120 34
-120 -35
-34 35 120
-121 -36
-121 -37
36 37 121
-122 120
-122 121
-120 -121 122
-123 -34
-123 -35
34 35 123
-124 -36
-124 37
36 -37 124
-125 123
-125 124
-123 -124 125
-126 -122
-126 -125
122 125 126
-127 112
-127 -126
-112 126 127
-128 38
-128 -39
-38 39 128
-129 -40
-129 -41
40 41 129
-130 128
-130 129
-128 -129 130
-131 -38
-131 -39
38 39 131
-132 -40
-132 41
40 -41 132
-133 131
-133 132
-131 -132 133
-134 -130
-134 -133
130 133 134
-135 113
-135 -134
-113 134 135
-136 42
-136 -43
-42 43 136
-137 -44
-137 -45
44 45 137
-138 136
-138 137
-136 -137 138
-139 -42
-139 -43
42 43 139
-140 -44
-140 45
44 -45 140
-141 139
-141 140
-139 -140 141
-142 -138
-142 -141
138 141 142
-143 114
-143 -142
-114 142 143
-144 46
-144 -47
-46 47 144
-145 -48
-145 -49
48 49 145
-146 144
-146 145
-144 -145 146
-147 -46
-147 -47
46 47 147
-148 -48
-148 49
48 -49 148
-149 147
-149 148
-147 -148 149
-150 -146
-150 -149
146 149 150
-151 115
-151 -150
-115 150 151
-152 50
-152 -51
-50 51 152
-153 -52
-153 -53
52 53 153
-154 152
-154 153
-152 -153 154
-155 -50
-155 -51
50 51 155
-156 -52
-156 53
52 -53 156
-157 155
-157 156
-155 -156 157
-158 -154
-158 -157
154 157 158
-159 116
-159 -158
-116 158 159
-160 54
-160 -55
-54 55 160
-161 -56
-161 -57
56 57 161
-162 160
-162 161
-160 -161 162
-163 -54
-163 -55
54 55 163
-164 -56
-164 57
56 -57 164
-165 163
-165 164
-163 -164 165
-166 -162
-166 -165
162 165 166
-167 117
-167 -166
-117 166 167
-168 58
-168 -59
-58 59 168
-169 -60
-169 -61
60 61 169
-170 168
-170 169
-168 -169 170
-171 -58
-171 -59
58 59 171
-172 -60
-172 61
60 -61 172
-173 171
-173 172
-171 -172 173
-174 -170
-174 -173
170 173 174
-175 118
-175 -174
-118 174 175
-176 62
-176 -63
-62 63 176
-177 -64
-177 -65
64 65 177
-178 176
-178 177
-176 -177 178
-179 -62
-179 -63
62 63 179
-180 -64
-180 65
64 -65 180
-181 179
-181 180
-179 -180 181
-182 -178
-182 -181
178 181 182
-183 119
-183 -182
-119 182 183
-184 -127
-184 -135
127 135 184
-185 -143
-185 -151
143 151 185
-186 -159
-186 -167
159 167 186
-187 -175
-187 -183
175 183 187
-188 184
-188 185
-184 -185 188
-189 186
-189 187
-186 -187 189
-190 188
-190 189
-188 -189 190
-191 -34
-191 35
34 -35 191
-192 36
-192 -37
-36 37 192
-193 191
-193 192
-191 -192 193
-194 36
-194 37
-36 -37 194
-195 120
-195 194
-120 -194 195
-196 -193
-196 -195
193 195 196
-197 112
-197 -196
-112 196 197
-198 -38
-198 39
38 -39 198
-199 40
-199 -41
-40 41 199
-200 198
-200 199
-198 -199 200
-201 40
-201 41
-40 -41 201
-202 128
-202 201
-128 -201 202
-203 -200
-203 -202
200 202 203
-204 113
-204 -203
-113 203 204
-205 -42
-205 43
42 -43 205
-206 44
-206 -45
-44 45 206
-207 205
-207 206
-205 -206 207
-208 44
-208 45
-44 -45 208
-209 136
-209 208
-136 -208 209
-210 -207
-210 -209
207 209 210
-211 114
-211 -210
-114 210 211
-212 -46
-212 47
46 -47 212
-213 48
-213 -49
-48 49 213
-214 212
-214 213
-212 -213 214
-215 48
-215 49
-48 -49 215
-216 144
-216 215
-144 -215 216
-217 -214
-217 -216
214 216 217
-218 115
-218 -217
-115 217 218
-219 -50
-219 51
50 -51 219
-220 52
-220 -53
-52 53 220
-221 219
-221 220
-219 -220 221
-222 52
-222 53
-52 -53 222
-223 152
-223 222
-152 -222 223
-224 -221
-224 -223
221 223 224
-225 116
-225 -224
-116 224 225
-226 -54
-226 55
54 -55 226
-227 56
-227 -57
-56 57 227
-228 226
-228 227
-226 -227 228
-229 56
-229 57
-56 -57 229
-230 160
-230 229
-160 -229 230
-231 -228
-231 -230
228 230 231
-232 117
-232 -231
-117 231 232
-233 -58
-233 59
58 -59 233
-234 60
-234 -61
-60 61 234
-235 233
-235 234
-233 -234 235
-236 60
-236 61
-60 -61 236
-237 168
-237 236
-168 -236 237
-238 -235
-238 -237
235 237 238
-239 118
-239 -238
-118 238 239
-240 -62
-240 63
62 -63 240
-241 64
-241 -65
-64 65 241
-242 240
-242 241
-240 -241 242
-243 64
-243 65
-64 -65 243
-244 176
-244 243
-176 -243 244
-245 -242
-245 -244
242 244 245
-246 119
-246 -245
-119 245 246
-247 -197
-247 -204
197 204 247
-248 -211
-248 -218
211 218 248
-249 -225
-249 -232
225 232 249
-250 -239
-250 -246
239 246 250
-251 247
-251 248
-247 -248 251
-252 249
-252 250
-249 -250 252
-253 251
-253 252
-251 -252 253
-254 17
-254 253
-17 -253 254
-255 190
-255 254
-190 -254 255
-256 190
-256 -255
-190 255 256
-257 -26
-257 27
26 -27 257
-258 -26
-258 -257
26 257 258
-259 28
-259 258
-28 -258 259
-260 258
-260 -259
-258 259 260
-261 29
-261 260
-29 -260 261
-262 260
-262 -261
-260 261 262
-263 30
-263 262
-30 -262 263
-264 262
-264 -263
-262 263 264
-265 31
-265 264
-31 -264 265
-266 264
-266 -265
-264 265 266
-267 32
-267 266
-32 -266 267
-268 266
-268 -267
-266 267 268
-269 33
-269 268
-33 -268 269
-270 123
-270 194
-123 -194 270
-271 112
-271 270
-112 -270 271
-272 131
-272 201
-131 -201 272
-273 113
-273 272
-113 -272 273
-274 139
-274 208
-139 -208 274
-275 114
-275 274
-114 -274 275
-276 147
-276 215
-147 -215 276
-277 115
-277 276
-115 -276 277
-278 155
-278 222
-155 -222 278
-279 116
-279 278
-116 -278 279
-280 163
-280 229
-163 -229 280
-281 117
-281 280
-117 -280 281
-282 171
-282 236
-171 -236 282
-283 118
-283 282
-118 -282 283
-284 179
-284 243
-179 -243 284
-285 119
-285 284
-119 -284 285
-286 -271
-286 -273
271 273 286
-287 -275
-287 -277
275 277 287
-288 -279
-288 -281
279 281 288
-289 -283
-289 -285
283 285 289
-290 286
-290 287
-286 -287 290
-291 288
-291 289
-288 -289 291
-292 290
-292 291
-290 -291 292
-293 120
-293 192
-120 -192 293
-294 112
-294 293
-112 -293 294
-295 26
-295 -292
-26 292 295
-296 26
-296 -295
-26 295 296
-297 -294
-297 296
294 -296 297
-298 -294
-298 -297
294 297 298
-299 128
-299 199
-128 -199 299
-300 113
-300 299
-113 -299 300
-301 257
-301 -292
-257 292 301
-302 27
-302 -301
-27 301 302
-303 -300
-303 302
300 -302 303
-304 -300
-304 -303
300 303 304
-305 136
-305 206
-136 -206 305
-306 114
-306 305
-114 -305 306
-307 259
-307 -292
-259 292 307
-308 28
-308 -307
-28 307 308
-309 -306
-309 308
306 -308 309
-310 -306
-310 -309
306 309 310
-311 144
-311 213
-144 -213 311
-312 115
-312 311
-115 -311 312
-313 261
-313 -292
-261 292 313
-314 29
-314 -313
-29 313 314
-315 -312
-315 314
312 -314 315
-316 -312
-316 -315
312 315 316
-317 152
-317 220
-152 -220 317
-318 116
-318 317
-116 -317 318
-319 263
-319 -292
-263 292 319
-320 30
-320 -319
-30 319 320
-321 -318
-321 320
318 -320 321
-322 -318
-322 -321
318 321 322
-323 160
-323 227
-160 -227 323
-324 117
-324 323
-117 -323 324
-325 265
-325 -292
-265 292 325
-326 31
-326 -325
-31 325 326
-327 -324
-327 326
324 -326 327
-328 -324
-328 -327
324 327 328
-329 168
-329 234
-168 -234 329
-330 118
-330 329
-118 -329 330
-331 267
-331 -292
-267 292 331
-332 32
-332 -331
-32 331 332
-333 -330
-333 332
330 -332 333
-334 -330
-334 -333
330 333 334
-335 176
-335 241
-176 -241 335
-336 119
-336 335
-119 -335 336
-337 269
-337 -292
-269 292 337
-338 33
-338 -337
-33 337 338
-339 -336
-339 338
336 -338 339
-340 -336
-340 -339
336 339 340
-341 -26
-341 -27
26 27 341
-342 -28
-342 -29
28 29 342
-343 -30
-343 -31
30 31 343
-344 -32
-344 -33
32 33 344
-345 341
-345 342
-341 -342 345
-346 343
-346 344
-343 -344 346
-347 345
-347 346
-345 -346 347
-348 -35
-348 -123
35 123 348
-349 36
-349 123
-36 -123 349
-350 -36
-350 -348
36 348 350
-351 -349
-351 -350
349 350 351
-352 -9
-352 34
9 -34 352
-353 34
-353 -352
-34 352 353
-354 35
-354 -353
-35 353 354
-355 9
-355 -34
-9 34 355
-356 -35
-356 355
35 -355 356
-357 -191
-357 -356
191 356 357
-358 36
-358 354
-36 -354 358
-359 -36
-359 -357
36 357 359
-360 -358
-360 -359
358 359 360
-361 37
-361 -351
-37 351 361
-362 -37
-362 -360
37 360 362
-363 -361
-363 -362
361 362 363
-364 112
-364 -363
-112 363 364
-365 34
-365 -112
-34 112 365
-366 -364
-366 -365
364 365 366
-367 34
-367 347
-34 -347 367
-368 -35
-368 367
35 -367 368
-369 -191
-369 -368
191 368 369
-370 36
-370 120
-36 -120 370
-371 -36
-371 -369
36 369 371
-372 -370
-372 -371
370 371 372
-373 35
-373 -354
-35 354 373
-374 -34
-374 -66
34 66 374
-375 35
-375 374
-35 -374 375
-376 -120
-376 -375
120 375 376
-377 36
-377 -373
-36 373 377
-378 -36
-378 -376
36 376 378
-379 -377
-379 -378
377 378 379
-380 37
-380 -372
-37 372 380
-381 -37
-381 -379
37 379 381
-382 -380
-382 -381
380 381 382
-383 112
-383 -382
-112 382 383
-384 35
-384 -112
-35 112 384
-385 -383
-385 -384
383 384 385
-386 34
-386 -347
-34 347 386
-387 34
-387 35
-34 -35 387
-388 -35
-388 386
35 -386 388
-389 -387
-389 -388
387 388 389
-390 -35
-390 36
35 -36 390
-391 -36
-391 -389
36 389 391
-392 -390
-392 -391
390 391 392
-393 -34
-393 66
34 -66 393
-394 -34
-394 -393
34 393 394
-395 35
-395 -394
-35 394 395
-396 -36
-396 395
36 -395 396
-397 -377
-397 -396
377 396 397
-398 37
-398 -392
-37 392 398
-399 -37
-399 -397
37 397 399
-400 -398
-400 -399
398 399 400
-401 112
-401 -400
-112 400 401
-402 36
-402 -112
-36 112 402
-403 -401
-403 -402
401 402 403
-404 36
-404 -390
-36 390 404
-405 9
-405 34
-9 -34 405
-406 35
-406 405
-35 -405 406
-407 36
-407 406
-36 -406 407
-408 37
-408 -404
-37 404 408
-409 -37
-409 407
37 -407 409
-410 -408
-410 -409
408 409 410
-411 112
-411 -410
-112 410 411
-412 37
-412 -112
-37 112 412
-413 -411
-413 -412
411 412 413
-414 -39
-414 -131
39 131 414
-415 40
-415 131
-40 -131 415
-416 -40
-416 -414
40 414 416
-417 -415
-417 -416
415 416 417
-418 -10
-418 38
10 -38 418
-419 38
-419 -418
-38 418 419
-420 39
-420 -419
-39 419 420
-421 10
-421 -38
-10 38 421
-422 -39
-422 421
39 -421 422
-423 -198
-423 -422
198 422 423
-424 40
-424 420
-40 -420 424
-425 -40
-425 -423
40 423 425
-426 -424
-426 -425
424 425 426
-427 41
-427 -417
-41 417 427
-428 -41
-428 -426
41 426 428
-429 -427
-429 -428
427 428 429
-430 113
-430 -429
-113 429 430
-431 38
-431 -113
-38 113 431
-432 -430
-432 -431
430 431 432
-433 38
-433 347
-38 -347 433
-434 -39
-434 433
39 -433 434
-435 -198
-435 -434
198 434 435
-436 40
-436 128
-40 -128 436
-437 -40
-437 -435
40 435 437
-438 -436
-438 -437
436 437 438
-439 39
-439 -420
-39 420 439
-440 -38
-440 -66
38 66 440
-441 39
-441 440
-39 -440 441
-442 -128
-442 -441
128 441 442
-443 40
-443 -439
-40 439 443
-444 -40
-444 -442
40 442 444
-445 -443
-445 -444
443 444 445
-446 41
-446 -438
-41 438 446
-447 -41
-447 -445
41 445 447
-448 -446
-448 -447
446 447 448
-449 113
-449 -448
-113 448 449
-450 39
-450 -113
-39 113 450
-451 -449
-451 -450
449 450 451
-452 38
-452 -347
-38 347 452
-453 38
-453 39
-38 -39 453
-454 -39
-454 452
39 -452 454
-455 -453
-455 -454
453 454 455
-456 -39
-456 40
39 -40 456
-457 -40
-457 -455
40 455 457
-458 -456
-458 -457
456 457 458
-459 -38
-459 66
38 -66 459
-460 -38
-460 -459
38 459 460
-461 39
-461 -460
-39 460 461
-462 -40
-462 461
40 -461 462
-463 -443
-463 -462
443 462 463
-464 41
-464 -458
-41 458 464
-465 -41
-465 -463
41 463 465
-466 -464
-466 -465
464 465 466
-467 113
-467 -466
-113 466 467
-468 40
-468 -113
-40 113 468
-469 -467
-469 -468
467 468 469
-470 40
-470 -456
-40 456 470
-471 10
-471 38
-10 -38 471
-472 39
-472 471
-39 -471 472
-473 40
-473 472
-40 -472 473
-474 41
-474 -470
-41 470 474
-475 -41
-475 473
41 -473 475
-476 -474
-476 -475
474 475 476
-477 113
-477 -476
-113 476 477
-478 41
-478 -113
-41 113 478
-479 -477
-479 -478
477 478 479
-480 -43
-480 -139
43 139 480
-481 44
-481 139
-44 -139 481
-482 -44
-482 -480
44 480 482
-483 -481
-483 -482
481 482 483
-484 -11
-484 42
11 -42 484
-485 42
-485 -484
-42 484 485
-486 43
-486 -485
-43 485 486
-487 11
-487 -42
-11 42 487
-488 -43
-488 487
43 -487 488
-489 -205
-489 -488
205 488 489
-490 44
-490 486
-44 -486 490
-491 -44
-491 -489
44 489 491
-492 -490
-492 -491
490 491 492
-493 45
-493 -483
-45 483 493
-494 -45
-494 -492
45 492 494
-495 -493
-495 -494
493 494 495
-496 114
-496 -495
-114 495 496
-497 42
-497 -114
-42 114 497
-498 -496
-498 -497
496 497 498
-499 42
-499 347
-42 -347 499
-500 -43
-500 499
43 -499 500
-501 -205
-501 -500
205 500 501
-502 44
-502 136
-44 -136 502
-503 -44
-503 -501
44 501 503
-504 -502
-504 -503
502 503 504
-505 43
-505 -486
-43 486 505
-506 -42
-506 -66
42 66 506
-507 43
-507 506
-43 -506 507
-508 -136
-508 -507
136 507 508
-509 44
-509 -505
-44 505 509
-510 -44
-510 -508
44 508 510
-511 -509
-511 -510
509 510 511
-512 45
-512 -504
-45 504 512
-513 -45
-513 -511
45 511 513
-514 -512
-514 -513
512 513 514
-515 114
-515 -514
-114 514 515
-516 43
-516 -114
-43 114 516
-517 -515
-517 -516
515 516 517
-518 42
-518 -347
-42 347 518
-519 42
-519 43
-42 -43 519
-520 -43
-520 518
43 -518 520
-521 -519
-521 -520
519 520 521
-522 -43
-522 44
43 -44 522
-523 -44
-523 -521
44 521 523
-524 -522
-524 -523
522 523 524
-525 -42
-525 66
42 -66 525
-526 -42
-526 -525
42 525 526
-527 43
-527 -526
-43 526 527
-528 -44
-528 527
44 -527 528
-529 -509
-529 -528
509 528 529
-530 45
-530 -524
-45 524 530
-531 -45
-531 -529
45 529 531
-532 -530
-532 -531
530 531 532
-533 114
-533 -532
-114 532 533
-534 44
-534 -114
-44 114 534
-535 -533
-535 -534
533 534 535
-536 44
-536 -522
-44 522 536
-537 11
-537 42
-11 -42 537
-538 43
-538 537
-43 -537 538
-539 44
-539 538
-44 -538 539
-540 45
-540 -536
-45 536 540
-541 -45
-541 539
45 -539 541
-542 -540
-542 -541
540 541 542
-543 114
-543 -542
-114 542 543
-544 45
-544 -114
-45 114 544
-545 -543
-545 -544
543 544 545
-546 -47
-546 -147
47 147 546
-547 48
-547 147
-48 -147 547
-548 -48
-548 -546
48 546 548
-549 -547
-549 -548
547 548 549
-550 -12
-550 46
12 -46 550
-551 46
-551 -550
-46 550 551
-552 47
-552 -551
-47 551 552
-553 12
-553 -46
-12 46 553
-554 -47
-554 553
47 -553 554
-555 -212
-555 -554
212 554 555
-556 48
-556 552
-48 -552 556
-557 -48
-557 -555
48 555 557
-558 -556
-558 -557
556 557 558
-559 49
-559 -549
-49 549 559
-560 -49
-560 -558
49 558 560
-561 -559
-561 -560
559 560 561
-562 115
-562 -561
-115 561 562
-563 46
-563 -115
-46 115 563
-564 -562
-564 -563
562 563 564
-565 46
-565 347
-46 -347 565
-566 -47
-566 565
47 -565 566
-567 -212
-567 -566
212 566 567
-568 48
-568 144
-48 -144 568
-569 -48
-569 -567
48 567 569
-570 -568
-570 -569
568 569 570
-571 47
-571 -552
-47 552 571
-572 -46
-572 -66
46 66 572
-573 47
-573 572
-47 -572 573
-574 -144
-574 -573
144 573 574
-575 48
-575 -571
-48 571 575
-576 -48
-576 -574
48 574 576
-577 -575
-577 -576
575 576 577
-578 49
-578 -570
-49 570 578
-579 -49
-579 -577
49 577 579
-580 -578
-580 -579
578 579 580
-581 115
-581 -580
-115 580 581
-582 47
-582 -115
-47 115 582
-583 -581
-583 -582
581 582 583
-584 46
-584 -347
-46 347 584
-585 46
-585 47
-46 -47 585
-586 -47
-586 584
47 -584 586
-587 -585
-587 -586
585 586 587
-588 -47
-588 48
47 -48 588
-589 -48
-589 -587
48 587 589
-590 -588
-590 -589
588 589 590
-591 -46
-591 66
46 -66 591
-592 -46
-592 -591
46 591 592
-593 47
-593 -592
-47 592 593
-594 -48
-594 593
48 -593 594
-595 -575
-595 -594
575 594 595
-596 49
-596 -590
-49 590 596
-597 -49
-597 -595
49 595 597
-598 -596
-598 -597
596 597 598
-599 115
-599 -598
-115 598 599
-600 48
-600 -115
-48 115 600
-601 -599
-601 -600
599 600 601
-602 48
-602 -588
-48 588 602
-603 12
-603 46
-12 -46 603
-604 47
-604 603
-47 -603 604
-605 48
-605 604
-48 -604 605
-606 49
-606 -602
-49 602 606
-607 -49
-607 605
49 -605 607
-608 -606
-608 -607
606 607 608
-609 115
-609 -608
-115 608 609
-610 49
-610 -115
-49 115 610
-611 -609
-611 -610
609 610 611
-612 -51
-612 -155
51 155 612
-613 52
-613 155
-52 -155 613
-614 -52
-614 -612
52 612 614
-615 -613
-615 -614
613 614 615
-616 -13
-616 50
13 -50 616
-617 50
-617 -616
-50 616 617
-618 51
-618 -617
-51 617 618
-619 13
-619 -50
-13 50 619
-620 -51
-620 619
51 -619 620
-621 -219
-621 -620
219 620 621
-622 52
-622 618
-52 -618 622
-623 -52
-623 -621
52 621 623
-624 -622
-624 -623
622 623 624
-625 53
-625 -615
-53 615 625
-626 -53
-626 -624
53 624 626
-627 -625
-627 -626
625 626 627
-628 116
-628 -627
-116 627 628
-629 50
-629 -116
-50 116 629
-630 -628
-630 -629
628 629 630
-631 50
-631 347
-50 -347 631
-632 -51
-632 631
51 -631 632
-633 -219
-633 -632
219 632 633
-634 52
-634 152
-52 -152 634
-635 -52
-635 -633
52 633 635
-636 -634
-636 -635
634 635 636
-637 51
-637 -618
-51 618 637
-638 -50
-638 -66
50 66 638
-639 51
-639 638
-51 -638 639
-640 -152
-640 -639
152 639 640
-641 52
-641 -637
-52 637 641
-642 -52
-642 -640
52 640 642
-643 -641
-643 -642
641 642 643
-644 53
-644 -636
-53 636 644
-645 -53
-645 -643
53 643 645
-646 -644
-646 -645
644 645 646
-647 116
-647 -646
-116 646 647
-648 51
-648 -116
-51 116 648
-649 -647
-649 -648
647 648 649
-650 50
-650 -347
-50 347 650
-651 50
-651 51
-50 -51 651
-652 -51
-652 650
51 -650 652
-653 -651
-653 -652
651 652 653
-654 -51
-654 52
51 -52 654
-655 -52
-655 -653
52 653 655
-656 -654
-656 -655
654 655 656
-657 -50
-657 66
50 -66 657
-658 -50
-658 -657
50 657 658
-659 51
-659 -658
-51 658 659
-660 -52
-660 659
52 -659 660
-661 -641
-661 -660
641 660 661
-662 53
-662 -656
-53 656 662
-663 -53
-663 -661
53 661 663
-664 -662
-664 -663
662 663 664
-665 116
-665 -664
-116 664 665
-666 52
-666 -116
-52 116 666
-667 -665
-667 -666
665 666 667
-668 52
-668 -654
-52 654 668
-669 13
-669 50
-13 -50 669
-670 51
-670 669
-51 -669 670
-671 52
-671 670
-52 -670 671
-672 53
-672 -668
-53 668 672
-673 -53
-673 671
53 -671 673
-674 -672
-674 -673
672 673 674
-675 116
-675 -674
-116 674 675
-676 53
-676 -116
-53 116 676
-677 -675
-677 -676
675 676 677
-678 -55
-678 -163
55 163 678
-679 56
-679 163
-56 -163 679
-680 -56
-680 -678
56 678 680
-681 -679
-681 -680
679 680 681
-682 -14
-682 54
14 -54 682
-683 54
-683 -682
-54 682 683
-684 55
-684 -683
-55 683 684
-685 14
-685 -54
-14 54 685
-686 -55
-686 685
55 -685 686
-687 -226
-687 -686
226 686 687
-688 56
-688 684
-56 -684 688
-689 -56
-689 -687
56 687 689
-690 -688
-690 -689
688 689 690
-691 57
-691 -681
-57 681 691
-692 -57
-692 -690
57 690 692
-693 -691
-693 -692
691 692 693
-694 117
-694 -693
-117 693 694
-695 54
-695 -117
-54 117 695
-696 -694
-696 -695
694 695 696
-697 54
-697 347
-54 -347 697
-698 -55
-698 697
55 -697 698
-699 -226
-699 -698
226 698 699
-700 56
-700 160
-56 -160 700
-701 -56
-701 -699
56 699 701
-702 -700
-702 -701
700 701 702
-703 55
-703 -684
-55 684 703
-704 -54
-704 -66
54 66 704
-705 55
-705 704
-55 -704 705
-706 -160
-706 -705
160 705 706
-707 56
-707 -703
-56 703 707
-708 -56
-708 -706
56 706 708
-709 -707
-709 -708
707 708 709
-710 57
-710 -702
-57 702 710
-711 -57
-711 -709
57 709 711
-712 -710
-712 -711
710 711 712
-713 117
-713 -712
-117 712 713
-714 55
-714 -117
-55 117 714
-715 -713
-715 -714
713 714 715
-716 54
-716 -347
-54 347 716
-717 54
-717 55
-54 -55 717
-718 -55
-718 716
55 -716 718
-719 -717
-719 -718
717 718 719
-720 -55
-720 56
55 -56 720
-721 -56
-721 -719
56 719 721
-722 -720
-722 -721
720 721 722
-723 -54
-723 66
54 -66 723
-724 -54
-724 -723
54 723 724
-725 55
-725 -724
-55 724 725
-726 -56
-726 725
56 -725 726
-727 -707
-727 -726
707 726 727
-728 57
-728 -722
-57 722 728
-729 -57
-729 -727
57 727 729
-730 -728
-730 -729
728 729 730
-731 117
-731 -730
-117 730 731
-732 56
-732 -117
-56 117 732
-733 -731
-733 -732
731 732 733
-734 56
-734 -720
-56 720 734
-735 14
-735 54
-14 -54 735
-736 55
-736 735
-55 -735 736
-737 56
-737 736
-56 -736 737
-738 57
-738 -734
-57 734 738
-739 -57
-739 737
57 -737 739
-740 -738
-740 -739
738 739 740
-741 117
-741 -740
-117 740 741
-742 57
-742 -117
-57 117 742
-743 -741
-743 -742
741 742 743
-744 -59
-744 -171
59 171 744
-745 60
-745 171
-60 -171 745
-746 -60
-746 -744
60 744 746
-747 -745
-747 -746
745 746 747
-748 -15
-748 58
15 -58 748
-749 58
-749 -748
-58 748 749
-750 59
-750 -749
-59 749 750
-751 15
-751 -58
-15 58 751
-752 -59
-752 751
59 -751 752
-753 -233
-753 -752
233 752 753
-754 60
-754 750
-60 -750 754
-755 -60
-755 -753
60 753 755
-756 -754
-756 -755
754 755 756
-757 61
-757 -747
-61 747 757
-758 -61
-758 -756
61 756 758
-759 -757
-759 -758
757 758 759
-760 118
-760 -759
-118 759 760
-761 58
-761 -118
-58 118 761
-762 -760
-762 -761
760 761 762
-763 58
-763 347
-58 -347 763
-764 -59
-764 763
59 -763 764
-765 -233
-765 -764
233 764 765
-766 60
-766 168
-60 -168 766
-767 -60
-767 -765
60 765 767
-768 -766
-768 -767
766 767 768
-769 59
-769 -750
-59 750 769
-770 -58
-770 -66
58 66 770
-771 59
-771 770
-59 -770 771
-772 -168
-772 -771
168 771 772
-773 60
-773 -769
-60 769 773
-774 -60
-774 -772
60 772 774
-775 -773
-775 -774
773 774 775
-776 61
-776 -768
-61 768 776
-777 -61
-777 -775
61 775 777
-778 -776
-778 -777
776 777 778
-779 118
-779 -778
-118 778 779
-780 59
-780 -118
-59 118 780
-781 -779
-781 -780
779 780 781
-782 58
-782 -347
-58 347 782
-783 58
-783 59
-58 -59 783
-784 -59
-784 782
59 -782 784
-785 -783
-785 -784
783 784 785
-786 -59
-786 60
59 -60 786
-787 -60
-787 -785
60 785 787
-788 -786
-788 -787
786 787 788
-789 -58
-789 66
58 -66 789
-790 -58
-790 -789
58 789 790
-791 59
-791 -790
-59 790 791
-792 -60
-792 791
60 -791 792
-793 -773
-793 -792
773 792 793
-794 61
-794 -788
-61 788 794
-795 -61
-795 -793
61 793 795
-796 -794
-796 -795
794 795 796
-797 118
-797 -796
-118 796 797
-798 60
-798 -118
-60 118 798
-799 -797
-799 -798
797 798 799
-800 60
-800 -786
-60 786 800
-801 15
-801 58
-15 -58 801
-802 59
-802 801
-59 -801 802
-803 60
-803 802
-60 -802 803
-804 61
-804 -800
-61 800 804
-805 -61
-805 803
61 -803 805
-806 -804
-806 -805
804 805 806
-807 118
-807 -806
-118 806 807
-808 61
-808 -118
-61 118 808
-809 -807
-809 -808
807 808 809
-810 -63
-810 -179
63 179 810
-811 64
-811 179
-64 -179 811
-812 -64
-812 -810
64 810 812
-813 -811
-813 -812
811 812 813
-814 -16
-814 62
16 -62 814
-815 62
-815 -814
-62 814 815
-816 63
-816 -815
-63 815 816
-817 16
-817 -62
-16 62 817
-818 -63
-818 817
63 -817 818
-819 -240
-819 -818
240 818 819
-820 64
-820 816
-64 -816 820
-821 -64
-821 -819
64 819 821
-822 -820
-822 -821
820 821 822
-823 65
-823 -813
-65 813 823
-824 -65
-824 -822
65 822 824
-825 -823
-825 -824
823 824 825
-826 119
-826 -825
-119 825 826
-827 62
-827 -119
-62 119 827
-828 -826
-828 -827
826 827 828
-829 62
-829 347
-62 -347 829
-830 -63
-830 829
63 -829 830
-831 -240
-831 -830
240 830 831
-832 64
-832 176
-64 -176 832
-833 -64
-833 -831
64 831 833
-834 -832
-834 -833
832 833 834
-835 63
-835 -816
-63 816 835
-836 -62
-836 -66
62 66 836
-837 63
-837 836
-63 -836 837
-838 -176
-838 -837
176 837 838
-839 64
-839 -835
-64 835 839
-840 -64
-840 -838
64 838 840
-841 -839
-841 -840
839 840 841
-842 65
-842 -834
-65 834 842
-843 -65
-843 -841
65 841 843
-844 -842
-844 -843
842 843 844
-845 119
-845 -844
-119 844 845
-846 63
-846 -119
-63 119 846
-847 -845
-847 -846
845 846 847
-848 62
-848 -347
-62 347 848
-849 62
-849 63
-62 -63 849
-850 -63
-850 848
63 -848 850
-851 -849
-851 -850
849 850 851
-852 -63
-852 64
63 -64 852
-853 -64
-853 -851
64 851 853
-854 -852
-854 -853
852 853 854
-855 -62
-855 66
62 -66 855
-856 -62
-856 -855
62 855 856
-857 63
-857 -856
-63 856 857
-858 -64
-858 857
64 -857 858
-859 -839
-859 -858
839 858 859
-860 65
-860 -854
-65 854 860
-861 -65
-861 -859
65 859 861
-862 -860
-862 -861
860 861 862
-863 119
-863 -862
-119 862 863
-864 64
-864 -119
-64 119 864
-865 -863
-865 -864
863 864 865
-866 64
-866 -852
-64 852 866
-867 16
-867 62
-16 -62 867
-868 63
-868 867
-63 -867 868
-869 64
-869 868
-64 -868 869
-870 65
-870 -866
-65 866 870
-871 -65
-871 869
65 -869 871
-872 -870
-872 -871
870 871 872
-873 119
-873 -872
-119 872 873
-874 65
-874 -119
-65 119 874
-875 -873
-875 -874
873 874 875
-876 121
-876 387
-121 -387 876
-877 112
-877 876
-112 -876 877
-878 129
-878 453
-129 -453 878
-879 113
-879 878
-113 -878 879
-880 137
-880 519
-137 -519 880
-881 114
-881 880
-114 -880 881
-882 145
-882 585
-145 -585 882
-883 115
-883 882
-115 -882 883
-884 153
-884 651
-153 -651 884
-885 116
-885 884
-116 -884 885
-886 161
-886 717
-161 -717 886
-887 117
-887 886
-117 -886 887
-888 169
-888 783
-169 -783 888
-889 118
-889 888
-118 -888 889
-890 177
-890 849
-177 -849 890
-891 119
-891 890
-119 -890 891
-892 -877
-892 -879
877 879 892
-893 -881
-893 -883
881 883 893
-894 -885
-894 -887
885 887 894
-895 -889
-895 -891
889 891 895
-896 892
-896 893
-892 -893 896
-897 894
-897 895
-894 -895 897
-898 896
-898 897
-896 -897 898
-899 124
-899 191
-124 -191 899
-900 112
-900 899
-112 -899 900
-901 132
-901 198
-132 -198 901
-902 113
-902 901
-113 -901 902
-903 140
-903 205
-140 -205 903
-904 114
-904 903
-114 -903 904
-905 148
-905 212
-148 -212 905
-906 115
-906 905
-115 -905 906
-907 156
-907 219
-156 -219 907
-908 116
-908 907
-116 -907 908
-909 164
-909 226
-164 -226 909
-910 117
-910 909
-117 -909 910
-911 172
-911 233
-172 -233 911
-912 118
-912 911
-118 -911 912
-913 180
-913 240
-180 -240 913
-914 119
-914 913
-119 -913 914
-915 -900
-915 -902
900 902 915
-916 -904
-916 -906
904 906 916
-917 -908
-917 -910
908 910 917
-918 -912
-918 -914
912 914 918
-919 915
-919 916
-915 -916 919
-920 917
-920 918
-917 -918 920
-921 919
-921 920
-919 -920 921
-922 -66
-922 -921
66 921 922
-923 66
-923 921
-66 -921 923
-924 -922
-924 -923
922 923 924
-925 -66
-925 -898
66 898 925
-926 898
-926 -924
-898 924 926
-927 -925
-927 -926
925 926 927
-928 192
-928 387
-192 -387 928
-929 -26
-929 928
26 -928 929
-930 199
-930 453
-199 -453 930
-931 -27
-931 930
27 -930 931
-932 206
-932 519
-206 -519 932
-933 -28
-933 932
28 -932 933
-934 213
-934 585
-213 -585 934
-935 -29
-935 934
29 -934 935
-936 220
-936 651
-220 -651 936
-937 -30
-937 936
30 -936 937
-938 227
-938 717
-227 -717 938
-939 -31
-939 938
31 -938 939
-940 234
-940 783
-234 -783 940
-941 -32
-941 940
32 -940 941
-942 241
-942 849
-241 -849 942
-943 -33
-943 942
33 -942 943
-944 929
-944 -931
-929 931 944
-945 -929
-945 931
929 -931 945
-946 -944
-946 -945
944 945 946
-947 929
-947 931
-929 -931 947
-948 -933
-948 -946
933 946 948
-949 933
-949 946
-933 -946 949
-950 -948
-950 -949
948 949 950
-951 933
-951 -946
-933 946 951
-952 947
-952 -951
-947 951 952
-953 -947
-953 951
947 -951 953
-954 -952
-954 -953
952 953 954
-955 947
-955 951
-947 -951 955
-956 -935
-956 -950
935 950 956
-957 935
-957 950
-935 -950 957
-958 -956
-958 -957
956 957 958
-959 935
-959 -950
-935 950 959
-960 -955
-960 -958
955 958 960
-961 955
-961 958
-955 -958 961
-962 -960
-962 -961
960 961 962
-963 955
-963 -958
-955 958 963
-964 -959
-964 -963
959 963 964
-965 -954
-965 964
954 -964 965
-966 954
-966 -964
-954 964 966
-967 -965
-967 -966
965 966 967
-968 -954
-968 -964
954 964 968
-969 -937
-969 -962
937 962 969
-970 937
-970 962
-937 -962 970
-971 -969
-971 -970
969 970 971
-972 937
-972 -962
-937 962 972
-973 -967
-973 -972
967 972 973
-974 967
-974 972
-967 -972 974
-975 -973
-975 -974
973 974 975
-976 -967
-976 972
967 -972 976
-977 968
-977 -976
-968 976 977
-978 -968
-978 976
968 -976 978
-979 -977
-979 -978
977 978 979
-980 968
-980 976
-968 -976 980
-981 -939
-981 -971
939 971 981
-982 939
-982 971
-939 -971 982
-983 -981
-983 -982
981 982 983
-984 939
-984 -971
-939 971 984
-985 -980
-985 -983
980 983 985
-986 980
-986 983
-980 -983 986
-987 -985
-987 -986
985 986 987
-988 980
-988 -983
-980 983 988
-989 -984
-989 -988
984 988 989
-990 -975
-990 989
975 -989 990
-991 975
-991 -989
-975 989 991
-992 -990
-992 -991
990 991 992
-993 -975
-993 -989
975 989 993
-994 -979
-994 -993
979 993 994
-995 979
-995 993
-979 -993 995
-996 -994
-996 -995
994 995 996
-997 -979
-997 993
979 -993 997
-998 -941
-998 -987
941 987 998
-999 941
-999 987
-941 -987 999
-1000 -998
-1000 -999
998 999 1000
-1001 941
-1001 -987
-941 987 1001
-1002 -997
-1002 -1000
997 1000 1002
-1003 997
-1003 1000
-997 -1000 1003
-1004 -1002
-1004 -1003
1002 1003 1004
-1005 997
-1005 -1000
-997 1000 1005
-1006 -1001
-1006 -1005
1001 1005 1006
-1007 -992
-1007 1006
992 -1006 1007
-1008 992
-1008 -1006
-992 1006 1008
-1009 -1007
-1009 -1008
1007 1008 1009
-1010 -992
-1010 -1006
992 1006 1010
-1011 -996
-1011 -1010
996 1010 1011
-1012 996
-1012 1010
-996 -1010 1012
-1013 -1011
-1013 -1012
1011 1012 1013
-1014 -996
-1014 1010
996 -1010 1014
-1015 -943
-1015 -1004
943 1004 1015
-1016 943
-1016 1004
-943 -1004 1016
-1017 -1015
-1017 -1016
1015 1016 1017
-1018 943
-1018 -1004
-943 1004 1018
-1019 -1014
-1019 -1017
1014 1017 1019
-1020 1014
-1020 1017
-1014 -1017 1020
-1021 -1019
-1021 -1020
1019 1020 1021
-1022 1014
-1022 -1017
-1014 1017 1022
-1023 -1018
-1023 -1022
1018 1022 1023
-1024 -1009
-1024 1023
1009 -1023 1024
-1025 1009
-1025 -1023
-1009 1023 1025
-1026 -1024
-1026 -1025
1024 1025 1026
-1027 -1009
-1027 -1023
1009 1023 1027
-1028 -1013
-1028 -1027
1013 1027 1028
-1029 1013
-1029 1027
-1013 -1027 1029
-1030 -1028
-1030 -1029
1028 1029 1030
-1031 -1013
-1031 1027
1013 -1027 1031
-1032 -1026
-1032 1030
1026 -1030 1032
-1033 1030
-1033 -1032
-1030 1032 1033
-1034 -1031
-1034 -1033
1031 1033 1034
-1035 -1031
-1035 -1034
1031 1034 1035
-1036 -66
-1036 -347
66 347 1036
-1037 66
-1037 -898
-66 898 1037
-1038 1035
-1038 -1037
-1035 1037 1038
-1039 -922
-1039 -1036
922 1036 1039
-1040 1038
-1040 1039
-1038 -1039 1040
-1040
